/*********************************************
    * Lab01 - FCR
    * Author: Coso
    * Creation Date: Mar, 2019
    *********************************************/
instance_name = "medium_instance_06_FCR";

d = 5;
r = 15;

SCj = [293 303 283 302 284];
Dk = [73 49 96 15 59 93 13 96 44 72 79 99 98 89 52];

Cjk = [[65 50 66 42 52 38 82 76 52 73 82 47 52 55 69]
 [39 88 82 81 73 50 40 43 31 66 48 31 84 73 73]
 [71 58 42 85 41 73 88 87 65 84 63 85 31 52 30]
 [30 54 63 79 58 65 80 37 86 39 82 52 67 60 41]
 [87 34 70 59 57 50 41 55 58 40 30 66 61 43 52]];
Fjk = [[712 814 437 610 776 479 370 885 491 665 550 674 371 767 344]
 [305 554 407 815 869 802 539 504 309 541 468 824 884 296 374]
 [600 641 684 414 504 473 728 781 346 756 315 873 842 696 363]
 [861 478 495 738 807 560 472 780 381 649 488 414 353 639 302]
 [729 452 637 810 675 562 766 570 766 354 636 730 626 807 527]];
